c Result of efficient AIG-to-CNF conversion using package CNF
p cnf 333 1212
2 41 -42 0
2 -3 -4 -42 0
-2 42 0
-2 4 -41 0
-2 3 -41 0
-3 270 302 0
3 -270 0
3 -302 0
-4 271 5 6 0
-4 303 5 6 0
-4 271 303 5 0
4 -271 -303 0
4 -303 -6 0
4 -5 0
4 -271 -6 0
5 -270 -302 0
-5 270 0
-5 302 0
6 -272 -304 0
6 -272 -7 -8 0
6 -304 -7 -8 0
-6 304 8 0
-6 272 7 0
-6 272 8 0
-6 304 7 0
-6 272 304 0
-7 273 305 0
7 -273 0
7 -305 0
-8 274 9 10 0
-8 306 9 10 0
-8 274 306 9 0
8 -274 -306 0
8 -306 -10 0
8 -9 0
8 -274 -10 0
9 -273 -305 0
-9 273 0
-9 305 0
10 -275 -307 0
10 -275 -11 -12 0
10 -307 -11 -12 0
-10 307 12 0
-10 275 11 0
-10 275 12 0
-10 307 11 0
-10 275 307 0
-11 276 308 0
11 -276 0
11 -308 0
-12 277 13 14 0
-12 309 13 14 0
-12 277 309 13 0
12 -277 -309 0
12 -309 -14 0
12 -13 0
12 -277 -14 0
13 -276 -308 0
-13 276 0
-13 308 0
14 -278 -310 0
14 -310 -15 0
14 -278 -15 0
-14 278 15 0
-14 310 15 0
-14 278 310 0
15 -279 -311 0
15 -311 -16 0
15 -279 -16 0
-15 279 16 0
-15 311 16 0
-15 279 311 0
16 -280 -312 0
16 -312 -17 0
16 -280 -17 0
-16 280 17 0
-16 312 17 0
-16 280 312 0
17 -281 -313 0
17 -313 -18 0
17 -281 -18 0
-17 281 18 0
-17 313 18 0
-17 281 313 0
18 -19 -20 0
18 -19 -21 -22 0
-18 19 0
-18 20 22 0
-18 20 21 0
-19 282 314 0
19 -282 0
19 -314 0
20 -282 -314 0
-20 282 0
-20 314 0
-21 283 315 0
21 -283 0
21 -315 0
-22 283 23 0
-22 315 23 0
22 -23 0
22 -283 -315 0
23 -284 -316 0
23 -316 -24 0
23 -284 -24 0
-23 284 24 0
-23 316 24 0
-23 284 316 0
24 -285 -317 0
24 -317 -25 0
24 -285 -25 0
-24 285 25 0
-24 317 25 0
-24 285 317 0
25 -286 -318 0
25 -318 -26 0
25 -286 -26 0
-25 286 26 0
-25 318 26 0
-25 286 318 0
26 -287 -319 0
26 -287 -27 -28 0
26 -319 -27 -28 0
-26 319 28 0
-26 287 27 0
-26 287 28 0
-26 319 27 0
-26 287 319 0
-27 288 320 0
27 -288 0
27 -320 0
-28 289 29 30 0
-28 321 29 30 0
-28 289 321 29 0
28 -289 -321 0
28 -321 -30 0
28 -29 0
28 -289 -30 0
29 -288 -320 0
-29 288 0
-29 320 0
30 -290 -322 0
30 -322 -31 0
30 -290 -31 0
-30 290 31 0
-30 322 31 0
-30 290 322 0
31 -291 -323 0
31 -323 -32 0
31 -291 -32 0
-31 291 32 0
-31 323 32 0
-31 291 323 0
32 -292 -324 0
32 -324 -33 0
32 -292 -33 0
-32 292 33 0
-32 324 33 0
-32 292 324 0
33 -293 -325 0
33 -325 -34 0
33 -293 -34 0
-33 293 34 0
-33 325 34 0
-33 293 325 0
34 -294 -326 0
34 -326 -35 0
34 -294 -35 0
-34 294 35 0
-34 326 35 0
-34 294 326 0
35 -295 -327 0
35 -327 -36 0
35 -295 -36 0
-35 295 36 0
-35 327 36 0
-35 295 327 0
36 -296 -328 0
36 -328 -37 0
36 -296 -37 0
-36 296 37 0
-36 328 37 0
-36 296 328 0
37 -297 -329 0
37 -329 -38 0
37 -297 -38 0
-37 297 38 0
-37 329 38 0
-37 297 329 0
38 -298 -330 0
38 -330 -39 0
38 -298 -39 0
-38 298 39 0
-38 330 39 0
-38 298 330 0
39 -299 -331 0
39 -331 -40 0
39 -299 -40 0
-39 299 40 0
-39 331 40 0
-39 299 331 0
40 -300 -332 0
-40 300 0
-40 332 0
-41 -269 -301 0
-41 269 301 0
41 269 -301 0
41 -269 301 0
42 6 44 -46 0
42 43 44 -46 0
-42 46 0
-42 -44 0
-42 -43 -6 0
43 -271 -303 0
-43 271 0
-43 303 0
44 41 -45 0
44 -270 -302 -45 0
-44 45 0
-44 270 -41 0
-44 302 -41 0
-45 271 303 6 0
45 -271 0
45 -6 0
45 -303 0
46 7 -48 0
46 -8 -47 -48 0
-46 48 0
-46 -7 8 0
-46 -7 47 0
47 272 -304 0
47 -272 304 0
-47 -272 -304 0
-47 272 304 0
48 49 -50 0
48 273 -305 -50 0
48 -273 305 -50 0
-48 50 0
-48 273 305 -49 0
-48 -273 -305 -49 0
-49 274 306 10 0
49 -274 0
49 -10 0
49 -306 0
50 306 -51 0
50 274 -51 0
50 10 -51 0
-50 51 0
-50 -274 -306 -10 0
51 52 -53 0
51 276 -308 -53 0
51 -276 308 -53 0
-51 53 0
-51 276 308 -52 0
-51 -276 -308 -52 0
-52 277 309 14 0
52 -277 0
52 -14 0
52 -309 0
53 11 -55 0
53 -12 -54 -55 0
-53 55 0
-53 -11 12 0
-53 -11 54 0
54 275 -307 0
54 -275 307 0
-54 -275 -307 0
-54 275 307 0
55 14 57 -59 0
55 56 57 -59 0
-55 59 0
-55 -57 0
-55 -56 -14 0
56 -277 -309 0
-56 277 0
-56 309 0
57 -279 58 0
57 -279 -311 -16 0
57 -311 58 0
57 -16 58 0
-57 311 -58 0
-57 279 311 16 0
-57 279 -58 0
-57 16 -58 0
58 278 -310 0
58 -278 310 0
-58 -278 -310 0
-58 278 310 0
59 60 64 -65 0
59 -17 60 -65 0
-59 65 0
-59 -60 0
-59 17 -64 0
60 -61 62 0
-60 61 0
-60 -62 0
61 311 -58 0
61 279 -58 0
-61 58 0
-61 -279 -311 0
62 -63 -16 0
62 -278 -310 -63 0
62 278 310 -63 0
-62 63 0
-62 -278 310 16 0
-62 278 -310 16 0
-63 279 311 0
63 -279 0
63 -311 0
64 280 -312 0
64 -280 312 0
-64 -280 -312 0
-64 280 312 0
65 -64 -66 268 0
65 17 -66 268 0
-65 66 0
-65 -268 0
-65 -17 64 0
66 -67 259 266 267 0
-66 -259 0
-66 -267 0
-66 67 0
-66 -266 0
67 68 -72 253 0
67 -70 -72 253 0
-67 -253 0
-67 72 0
-67 -68 70 0
68 323 -69 0
68 291 -69 0
-68 69 0
-68 -291 -323 0
69 290 -322 0
69 -290 322 0
-69 -290 -322 0
-69 290 322 0
70 -71 -32 0
70 -290 -322 -71 0
70 290 322 -71 0
-70 71 0
-70 -290 322 32 0
-70 290 -322 32 0
-71 291 323 0
71 -291 0
71 -323 0
72 33 -73 240 241 0
72 -33 -73 -240 241 0
-72 -241 0
-72 33 -240 0
-72 73 0
-72 -33 240 0
-73 157 198 0
-73 74 -117 198 0
73 -198 0
73 -74 -157 0
73 117 -157 0
-74 -287 86 102 0
-74 75 86 102 0
74 -102 0
74 -86 0
74 287 -75 0
75 76 -78 0
-75 -76 0
-75 78 0
76 38 -77 0
76 -38 77 0
-76 -38 -77 0
-76 38 77 0
77 297 -329 0
77 -297 329 0
-77 -297 -329 0
-77 297 329 0
78 79 -81 0
-78 -79 0
-78 81 0
79 39 -80 0
79 -39 80 0
-79 -39 -80 0
-79 39 80 0
80 298 -330 0
80 -298 330 0
-80 -298 -330 0
-80 298 330 0
81 82 -85 0
81 -269 -82 84 0
-81 82 85 0
-81 -82 -84 0
-81 269 -82 0
82 40 -83 0
82 -40 83 0
-82 -40 -83 0
-82 40 83 0
83 299 -331 0
83 -299 331 0
-83 -299 -331 0
-83 299 331 0
84 300 -332 0
84 -300 332 0
-84 -300 -332 0
-84 300 332 0
85 -271 84 0
85 -270 -84 0
-85 271 84 0
-85 270 -84 0
-86 -76 87 0
-86 87 100 0
-86 -285 87 0
86 -87 0
86 285 76 -100 0
87 296 -88 0
-87 -296 0
-87 88 0
88 76 -89 0
88 -76 -96 0
-88 -76 96 0
-88 76 89 0
89 79 -90 0
89 -79 -93 0
-89 -79 93 0
-89 79 90 0
90 82 -91 0
90 -82 -92 0
-90 -82 92 0
-90 82 91 0
91 -280 84 0
91 -279 -84 0
-91 280 84 0
-91 279 -84 0
92 -278 84 0
92 -277 -84 0
-92 278 84 0
-92 277 -84 0
93 82 -94 0
93 -82 -95 0
-93 -82 95 0
-93 82 94 0
94 -276 84 0
94 -275 -84 0
-94 276 84 0
-94 275 -84 0
95 -274 84 0
95 -273 -84 0
-95 274 84 0
-95 273 -84 0
96 79 -97 0
-96 -79 0
-96 97 0
97 82 -98 0
97 -82 -99 0
-97 -82 99 0
-97 82 98 0
98 -272 84 0
98 -271 -84 0
-98 272 84 0
-98 271 -84 0
99 -270 84 0
99 -269 -84 0
-99 270 84 0
-99 269 -84 0
100 79 -101 0
-100 -79 0
-100 101 0
101 -269 82 84 0
-101 269 0
-101 -84 0
-101 -82 0
-102 -299 103 0
-102 -295 111 0
-102 -295 -299 0
-102 103 111 0
102 299 -111 0
102 295 -103 0
103 -76 -78 0
103 76 -104 0
-103 76 104 0
-103 -76 78 0
104 79 -105 0
104 -79 -108 0
-104 -79 108 0
-104 79 105 0
105 82 -106 0
105 -82 -107 0
-105 -82 107 0
-105 82 106 0
106 -279 84 0
106 -278 -84 0
-106 279 84 0
-106 278 -84 0
107 -277 84 0
107 -276 -84 0
-107 277 84 0
-107 276 -84 0
108 82 -109 0
108 -82 -110 0
-108 -82 110 0
-108 82 109 0
109 -275 84 0
109 -274 -84 0
-109 275 84 0
-109 274 -84 0
110 -273 84 0
110 -272 -84 0
-110 273 84 0
-110 272 -84 0
111 76 -112 0
111 -76 -116 0
-111 -76 116 0
-111 76 112 0
112 -79 -105 0
112 79 -113 0
-112 79 113 0
-112 -79 105 0
113 82 -114 0
113 -82 -115 0
-113 -82 115 0
-113 82 114 0
114 -283 84 0
114 -282 -84 0
-114 283 84 0
-114 282 -84 0
115 -281 84 0
115 -280 -84 0
-115 281 84 0
-115 280 -84 0
116 -79 -81 0
116 79 -108 0
-116 79 108 0
-116 -79 81 0
117 -118 148 155 0
117 -294 -118 148 0
-117 -148 0
-117 118 0
-117 294 -155 0
118 -119 121 132 139 0
-118 -139 0
-118 119 0
-118 -132 0
-118 -121 0
119 37 -120 0
119 -37 120 0
-119 -37 -120 0
-119 37 120 0
120 296 -328 0
120 -296 328 0
-120 -296 -328 0
-120 296 328 0
-121 -298 122 0
-121 -292 124 0
-121 -292 -298 0
-121 122 124 0
121 298 -124 0
121 292 -122 0
122 76 -123 0
-122 -76 0
-122 123 0
123 79 -93 0
123 -79 -97 0
-123 -79 97 0
-123 79 93 0
124 76 -125 0
124 -76 -129 0
-124 -76 129 0
-124 76 125 0
125 79 -126 0
125 -79 -128 0
-125 -79 128 0
-125 79 126 0
126 -82 -91 0
126 82 -127 0
-126 82 127 0
-126 -82 91 0
127 -282 84 0
127 -281 -84 0
-127 282 84 0
-127 281 -84 0
128 82 -92 0
128 -82 -94 0
-128 -82 94 0
-128 82 92 0
129 79 -130 0
129 -79 -131 0
-129 -79 131 0
-129 79 130 0
130 82 -95 0
130 -82 -98 0
-130 -82 98 0
-130 82 95 0
131 -269 82 -84 0
131 -270 82 84 0
-131 -82 0
-131 269 -84 0
-131 270 84 0
-132 -290 134 0
-132 133 134 0
132 -134 0
132 290 -133 0
133 76 -129 0
-133 -76 0
-133 129 0
-134 -291 135 0
-134 -289 138 0
-134 -289 -291 0
-134 135 138 0
134 291 -138 0
134 289 -135 0
135 76 -136 0
-135 -76 0
-135 136 0
136 -79 -101 0
136 79 -137 0
-136 79 137 0
-136 -79 101 0
137 -82 -85 0
137 82 -110 0
-137 82 110 0
-137 -82 85 0
138 76 -116 0
-138 -76 0
-138 116 0
-139 -297 144 0
-139 140 144 0
139 -144 0
139 297 -140 0
140 -76 -136 0
140 76 -141 0
-140 76 141 0
-140 -76 136 0
141 79 -142 0
141 -79 -143 0
-141 -79 143 0
-141 79 142 0
142 -82 -106 0
142 82 -115 0
-142 82 115 0
-142 -82 106 0
143 82 -107 0
143 -82 -109 0
-143 -82 109 0
-143 82 107 0
-144 -288 145 0
-144 -286 147 0
-144 -286 -288 0
-144 145 147 0
144 288 -147 0
144 286 -145 0
145 76 -146 0
-145 -76 0
-145 146 0
146 79 -131 0
-146 -79 0
-146 131 0
147 76 -96 0
-147 -76 0
-147 96 0
-148 -293 149 0
-148 -300 153 0
-148 -293 -300 0
-148 149 153 0
148 293 -153 0
148 300 -149 0
149 -76 -123 0
149 76 -150 0
-149 76 150 0
-149 -76 123 0
150 -79 -90 0
150 79 -151 0
-150 79 151 0
-150 -79 90 0
151 -82 -127 0
151 82 -152 0
-151 82 152 0
-151 -82 127 0
152 -284 84 0
152 -283 -84 0
-152 284 84 0
-152 283 -84 0
153 -76 -100 0
153 76 -154 0
-153 76 154 0
-153 -76 100 0
154 -79 -137 0
154 79 -143 0
-154 79 143 0
-154 -79 137 0
155 -76 -146 0
155 76 -156 0
-155 76 156 0
-155 -76 146 0
156 79 -128 0
156 -79 -130 0
-156 -79 130 0
-156 79 128 0
-157 158 172 176 0
-157 -292 158 176 0
157 -176 0
157 -158 0
157 292 -172 0
158 298 -76 -166 0
158 298 76 -159 0
-158 -298 0
-158 -76 166 0
-158 76 159 0
-159 79 160 0
-159 -79 163 0
159 -79 -163 0
159 79 -160 0
-160 -82 162 0
-160 82 161 0
160 82 -161 0
160 -82 -162 0
161 -298 84 0
161 -297 -84 0
-161 298 84 0
-161 297 -84 0
162 -296 84 0
162 -295 -84 0
-162 296 84 0
-162 295 -84 0
163 82 -164 0
163 -82 -165 0
-163 -82 165 0
-163 82 164 0
164 -294 84 0
164 -293 -84 0
-164 294 84 0
-164 293 -84 0
165 -292 84 0
165 -291 -84 0
-165 292 84 0
-165 291 -84 0
166 79 -167 0
166 -79 -170 0
-166 -79 170 0
-166 79 167 0
167 82 -168 0
167 -82 -169 0
-167 -82 169 0
-167 82 168 0
168 -290 84 0
168 -289 -84 0
-168 290 84 0
-168 289 -84 0
169 -288 84 0
169 -287 -84 0
-169 288 84 0
-169 287 -84 0
170 -82 -152 0
170 82 -171 0
-170 82 171 0
-170 -82 152 0
171 -286 84 0
171 -285 -84 0
-171 286 84 0
-171 285 -84 0
172 -76 -150 0
172 76 -173 0
-172 76 173 0
-172 -76 150 0
173 79 -174 0
173 -79 -175 0
-173 -79 175 0
-173 79 174 0
174 82 -165 0
174 -82 -168 0
-174 -82 168 0
-174 82 165 0
175 82 -169 0
175 -82 -171 0
-175 -82 171 0
-175 82 169 0
-176 119 177 180 192 0
176 -192 0
176 -180 0
176 -119 0
176 -177 0
177 294 -76 -179 0
177 294 76 -178 0
-177 -294 0
-177 -76 179 0
-177 76 178 0
-178 -79 167 0
-178 79 163 0
178 79 -163 0
178 -79 -167 0
179 -79 -126 0
179 79 -170 0
-179 79 170 0
-179 -79 126 0
180 295 -76 -188 0
180 295 76 -181 0
-180 -295 0
-180 -76 188 0
-180 76 181 0
-181 -79 185 0
-181 79 182 0
181 79 -182 0
181 -79 -185 0
182 82 -183 0
182 -82 -184 0
-182 -82 184 0
-182 82 183 0
183 -295 84 0
183 -294 -84 0
-183 295 84 0
-183 294 -84 0
184 -293 84 0
184 -292 -84 0
-184 293 84 0
-184 292 -84 0
185 82 -186 0
185 -82 -187 0
-185 -82 187 0
-185 82 186 0
186 -291 84 0
186 -290 -84 0
-186 291 84 0
-186 290 -84 0
187 -289 84 0
187 -288 -84 0
-187 289 84 0
-187 288 -84 0
188 -79 -113 0
188 79 -189 0
-188 79 189 0
-188 -79 113 0
189 82 -190 0
189 -82 -191 0
-189 -82 191 0
-189 82 190 0
190 -287 84 0
190 -286 -84 0
-190 287 84 0
-190 286 -84 0
191 -285 84 0
191 -284 -84 0
-191 285 84 0
-191 284 -84 0
192 299 -76 -197 0
192 299 76 -193 0
-192 -299 0
-192 -76 197 0
-192 76 193 0
-193 -79 182 0
-193 79 194 0
193 -79 -182 0
193 79 -194 0
-194 82 196 0
-194 -82 195 0
194 -82 -195 0
194 82 -196 0
195 -297 84 0
195 -296 -84 0
-195 297 84 0
-195 296 -84 0
196 -299 84 0
196 -298 -84 0
-196 299 84 0
-196 298 -84 0
197 79 -185 0
197 -79 -189 0
-197 -79 189 0
-197 79 185 0
198 119 -224 0
198 119 -199 0
198 119 -232 0
-198 -119 0
-198 199 224 232 0
-199 -76 216 219 0
-199 200 216 219 0
199 -219 0
199 -216 0
199 76 -200 0
-200 166 201 205 0
-200 -290 201 205 0
200 -205 0
200 -201 0
200 290 -166 0
201 289 -202 0
-201 -289 0
-201 202 0
202 79 -203 0
202 -79 -204 0
-202 -79 204 0
-202 79 203 0
203 82 -187 0
203 -82 -190 0
-203 -82 190 0
-203 82 187 0
204 -82 -114 0
204 82 -191 0
-204 82 191 0
-204 -82 114 0
-205 -291 206 210 0
-205 197 206 210 0
205 -210 0
205 -206 0
205 291 -197 0
-206 -287 207 208 0
-206 188 207 208 0
206 -208 0
206 -207 0
206 287 -188 0
207 286 -179 0
-207 -286 0
-207 179 0
208 293 79 -209 0
208 293 -79 -203 0
-208 -293 0
-208 -79 203 0
-208 79 209 0
209 82 -184 0
209 -82 -186 0
-209 -82 186 0
-209 82 184 0
-210 211 215 0
-210 -285 211 0
210 -211 0
210 285 -215 0
211 300 -79 -214 0
211 300 79 -212 0
-211 -300 0
-211 -79 214 0
-211 79 212 0
-212 82 213 0
-212 -82 161 0
212 -82 -161 0
212 82 -213 0
213 -299 -300 0
213 -300 -332 0
213 -299 -332 0
-213 299 332 0
-213 300 332 0
-213 299 300 0
214 82 -162 0
214 -82 -164 0
-214 -82 164 0
-214 82 162 0
215 -79 -142 0
215 79 -204 0
-215 79 204 0
-215 -79 142 0
-216 -274 217 218 0
-216 133 217 218 0
216 -218 0
216 -217 0
216 274 -133 0
-217 -270 124 0
-217 -282 145 0
-217 -270 -282 0
-217 124 145 0
217 270 -145 0
217 282 -124 0
-218 -276 75 0
-218 -271 122 0
-218 -271 -276 0
-218 75 122 0
218 276 -122 0
218 271 -75 0
-219 -277 220 222 0
-219 153 220 222 0
219 -222 0
219 -220 0
219 277 -153 0
220 288 76 -221 0
220 288 -76 -89 0
-220 -288 0
-220 -76 89 0
-220 76 221 0
221 -79 -151 0
221 79 -175 0
-221 79 175 0
-221 -79 151 0
222 296 -76 -221 0
222 296 76 -223 0
-222 -296 0
-222 -76 221 0
-222 76 223 0
-223 79 214 0
-223 -79 174 0
223 -79 -174 0
223 79 -214 0
-224 155 225 228 0
-224 -278 225 228 0
224 -228 0
224 -225 0
224 278 -155 0
225 297 76 -226 0
225 297 -76 -202 0
-225 -297 0
-225 -76 202 0
-225 76 226 0
226 -79 -209 0
226 79 -227 0
-226 79 227 0
-226 -79 209 0
227 -82 -183 0
227 82 -195 0
-227 82 195 0
-227 -82 183 0
-228 103 229 231 0
-228 -279 229 231 0
228 -231 0
228 -229 0
228 279 -103 0
229 -76 -230 0
229 290 -76 -125 0
-229 76 0
-229 -290 230 0
-229 125 230 0
230 289 -141 0
-230 -289 0
-230 141 0
-231 -284 111 0
-231 -283 149 0
-231 -283 -284 0
-231 111 149 0
231 284 -149 0
231 283 -111 0
-232 76 233 235 0
-232 233 235 236 0
232 -235 0
232 -233 0
232 -76 -236 0
-233 -275 234 0
-233 138 234 0
233 -234 0
233 275 -138 0
-234 -272 140 0
-234 -281 147 0
-234 -272 -281 0
-234 140 147 0
234 272 -147 0
234 281 -140 0
-235 -273 88 0
-235 -280 135 0
-235 -273 -280 0
-235 88 135 0
235 273 -135 0
235 280 -88 0
-236 -291 237 239 0
-236 112 237 239 0
236 -239 0
236 -237 0
236 291 -112 0
-237 -286 238 0
-237 156 238 0
237 -238 0
237 286 -156 0
-238 -293 104 0
-238 -287 215 0
-238 -287 -293 0
-238 104 215 0
238 293 -215 0
238 287 -104 0
-239 -300 154 0
-239 -285 173 0
-239 -285 -300 0
-239 154 173 0
239 300 -173 0
239 285 -154 0
240 292 -324 0
240 -292 324 0
-240 -292 -324 0
-240 292 324 0
-241 242 244 250 251 0
241 -251 0
241 -242 0
241 -244 0
241 -250 0
-242 19 54 0
-242 -11 -243 0
-242 -11 19 0
-242 54 -243 0
242 -19 243 0
242 11 -54 0
243 281 -313 0
243 -281 313 0
-243 -281 -313 0
-243 281 313 0
-244 -36 245 -249 0
-244 36 -247 249 0
-244 36 245 249 0
-244 -36 -247 -249 0
244 36 -249 0
244 -36 249 0
244 -245 247 0
245 326 -246 0
245 294 -246 0
-245 246 0
-245 -294 -326 0
246 293 -325 0
246 -293 325 0
-246 -293 -325 0
-246 293 325 0
247 -248 -35 0
247 -293 -325 -248 0
247 293 325 -248 0
-247 248 0
-247 -293 325 35 0
-247 293 -325 35 0
-248 294 326 0
248 -294 0
248 -326 0
249 295 -327 0
249 -295 327 0
-249 -295 -327 0
-249 295 327 0
250 -294 246 0
250 -294 -326 -35 0
250 -326 246 0
250 -35 246 0
-250 326 -246 0
-250 294 326 35 0
-250 294 -246 0
-250 35 -246 0
-251 -27 252 0
-251 -287 -319 252 0
-251 287 319 252 0
251 -252 0
251 287 -319 27 0
251 -287 319 27 0
-252 3 47 0
-252 -7 -41 0
-252 -41 47 0
-252 3 -7 0
252 7 -47 0
252 -3 41 0
-253 27 255 0
-253 -28 -254 255 0
253 -255 0
253 -27 28 0
253 -27 254 0
254 287 -319 0
254 -287 319 0
-254 -287 -319 0
-254 287 319 0
-255 -26 256 -258 0
-255 26 256 258 0
255 -256 0
255 -26 258 0
255 26 -258 0
256 -289 257 0
256 -289 -321 -30 0
256 -321 257 0
256 -30 257 0
-256 321 -257 0
-256 289 321 30 0
-256 289 -257 0
-256 30 -257 0
257 288 -320 0
257 -288 320 0
-257 -288 -320 0
-257 288 320 0
258 286 -318 0
258 -286 318 0
-258 -286 -318 0
-258 286 318 0
-259 315 260 0
-259 283 260 0
-259 23 260 0
259 -260 0
259 -283 -315 -23 0
-260 -263 265 0
-260 261 265 0
260 -265 0
260 -261 263 0
261 317 -262 0
261 285 -262 0
-261 262 0
-261 -285 -317 0
262 284 -316 0
262 -284 316 0
-262 -284 -316 0
-262 284 316 0
263 -264 -25 0
263 -284 -316 -264 0
263 284 316 -264 0
-263 264 0
-263 -284 316 25 0
-263 284 -316 25 0
-264 285 317 0
264 -285 0
264 -317 0
265 -291 69 0
265 -291 -323 -32 0
265 -323 69 0
265 -32 69 0
-265 323 -69 0
-265 291 323 32 0
-265 291 -69 0
-265 32 -69 0
266 -21 22 0
266 -282 -314 -21 0
266 282 314 -21 0
-266 21 0
-266 -282 314 -22 0
-266 282 -314 -22 0
267 -285 262 0
267 -285 -317 -25 0
267 -317 262 0
267 -25 262 0
-267 317 -262 0
-267 285 317 25 0
-267 285 -262 0
-267 25 -262 0
268 21 -23 0
268 20 21 -243 0
-268 -21 0
-268 -20 23 0
-268 23 243 0
-333 0
2 0

